Doped supercell Ni(12)_Mn(12)           
   1.00000000000000     
     4.5224566390077703   -7.9034655396430518    0.0325814773777335
     3.0516764021887397    5.2901759867464824   -0.0001510100014336
     0.1148511533761311   -0.0699403227564649   32.0664312575547186
   Na   O    Fe   Mn   Ni
    36    72    12    12    12
Direct
  0.9930893091647480  0.9960210850945690  0.0013756765780380
  0.0003314733854621  0.9978634260057674  0.4997182308607365
  0.0000297488383679  0.4990292066874468  0.0005177657537272
  0.0054150939087045  0.5027868363140113  0.5003164807838948
  0.1120758945307074  0.3338121914599229  0.3328012455593569
  0.1075713431256194  0.3305064777656866  0.8331676559855224
  0.1109810249192996  0.8342640164557696  0.3326308772020961
  0.1009237419975059  0.8247925549659498  0.8341378624303963
  0.2269593721253578  0.1739378672797275  0.1649933823511811
  0.2218568323139206  0.1695308372941130  0.6653549635690845
  0.2235800577411591  0.6712851610030938  0.1658757156311245
  0.2134306393515836  0.6559099830464814  0.6666136285182427
  0.3413560810085016  0.0132627436253168  0.0003123451078897
  0.3393092350768253  0.0057541169689632  0.5008894308824451
  0.3302113045777421  0.4965884066224628  0.0016643086627352
  0.3354129647915292  0.4949011143810725  0.5019729686944754
  0.4450159818106438  0.3277595441857385  0.3302135797614442
  0.4417082449958993  0.3294270558521215  0.8343218528972975
  0.4418829444909070  0.8352543259239121  0.3318914529758321
  0.4465167070491106  0.8375417310860696  0.8336452705055960
  0.5575890456743197  0.1743486164907862  0.1673630580670492
  0.5512534790489648  0.1623634145393844  0.6670109327102903
  0.5641794954297226  0.6704618825343812  0.1656495500941372
  0.5572478498720548  0.6674422992134246  0.6676357600341450
  0.6649528556339023 -0.0000580261624703  0.0002350918272143
  0.6652463409047328  0.0004990150525335  0.5001673621022512
  0.6705535808983177  0.5029269111364054  0.0006574008014560
  0.6684448283972740  0.4981847372068130  0.4997986706042306
  0.7794367933034992  0.3377061567742873  0.3326880605251648
  0.7742342742610088  0.3317811592711287  0.8334871502148220
  0.7777889308036929  0.8308296143293956  0.3327073872054079
  0.7711271738670762  0.8303746610690457  0.8329832328838632
  0.8922598205567984  0.1669586372035756  0.1645674779531665
  0.8905187071938718  0.1707011620451790  0.6682160057880463
  0.8862982305051176  0.6670177634046977  0.1661447798197844
  0.8928582603455205  0.6662903690184673  0.6679688972699809
  0.0099214332955363  0.0001687584115364  0.1162778664010854
  0.0018033588638084  0.0080341922405149  0.3826337587504453
  0.9864113026078031  0.9836267265038603  0.6164265495058111
  0.9877237716815821  0.0053031666072147  0.8830492881108853
  0.9935478618493743  0.5009242170055633  0.1149023624962029
  0.0143430340526547  0.5049203608833440  0.3840949021041547
  0.9878075818624329  0.4939080194843224  0.6158252153164017
  0.9957034050062586  0.4806373787411710  0.8834663692759213
  0.1165198865553786  0.3465949670000939  0.2173707958438568
  0.1213457000284599  0.3459739159673098  0.4499223402736917
  0.1143621540606463  0.3231479793596478  0.7185861488125788
  0.1011505459318742  0.3181288104108049  0.9481722868527640
  0.1013837323737504  0.8138026246661594  0.2165197995938905
  0.1241556254737553  0.8336053173873780  0.4497113468364891
  0.1101400848721724  0.8470700219591915  0.7184209344370012
  0.1206481742818216  0.8474494411509734  0.9503239509719981
  0.2167008953433522  0.1592807467641806  0.0485334890419394
  0.2240997446232924  0.1843771086946477  0.2817634563974724
  0.2169715011321205  0.1548562922635299  0.5486009709033228
  0.2166941192679135  0.1687428211382003  0.7824397931002162
  0.2252382878538196  0.6823950644220685  0.0496869825057579
  0.2158389624396241  0.6503474028201726  0.2809264115513777
  0.2275595005839622  0.6753002991423034  0.5488725249268337
  0.2305495597222105  0.6615584911793388  0.7835244513818717
  0.3396733745877413  0.0107920738478760  0.1157478099181432
  0.3184749725668025  0.9764649371173665  0.3825724983496955
  0.3293024206820554  0.9896435115982379  0.6188163715421561
  0.3188771637232938  0.9939130456850277  0.8831735206102642
  0.3408071902849198  0.5124210172489765  0.1172252742425026
  0.3309676741119050  0.5064544963089610  0.3841899266880670
  0.3395873738676983  0.5099392889642942  0.6186914436717666
  0.3390411109258601  0.5003852795630228  0.8853603314894077
  0.4350905231510857  0.3419298858643381  0.2164131019501873
  0.4498602678478857  0.3289621530703929  0.4486501731777804
  0.4386777666984834  0.3375732298168547  0.7175211237509532
  0.4570287766961547  0.3612106355593672  0.9508472401086746
  0.4428366418399923  0.8184985051759738  0.2161832461577932
  0.4377181407619902  0.8289861256126394  0.4481374933279827
  0.4278229051941950  0.8077043978625552  0.7170922722010867
  0.4419222050043371  0.8181328509967009  0.9494053056429271
  0.5653851459223614  0.1741957788052187  0.0509279172888922
  0.5609695894696057  0.1647663054523147  0.2839046350430349
  0.5692587119361450  0.1716290138583865  0.5519587705444613
  0.5495535176302164  0.1690819442083955  0.7848687129943150
  0.5463686849914940  0.6548546573024921  0.0511718800516827
  0.5408732686656564  0.6614101671837489  0.2828015938574698
  0.5703888597025852  0.6820303535981110  0.5510205837347125
  0.5374248979011350  0.6464038044877090  0.7825417776178952
  0.6715237751146458  0.0211586869410109  0.1164946165806171
  0.6657869461421392  0.0080226372853469  0.3836628353068310
  0.6788370853019884  0.0079671904845021  0.6159356281387017
  0.6669396444883503  0.9910240104166597  0.8845845795607067
  0.6754729627088515  0.4932898054726698  0.1159943198307861
  0.6582181784941523  0.4918368899146261  0.3821348919337442
  0.6807784724858182  0.5102624455839028  0.6155625080878744
  0.6560728168030242  0.5079905781359084  0.8837807683235049
  0.7944027409837187  0.3399710981013622  0.2166081800553286
  0.7859608887962105  0.3323787136505984  0.4524193582828084
  0.7682617351518489  0.3309765088513036  0.7152738527679234
  0.7864551097436128  0.3254335577443302  0.9491791782928868
  0.7846564512880804  0.8463255861499136  0.2161543358361148
  0.7743870351779281  0.8372243194033913  0.4511697281999480
  0.7915487893273171  0.8394440443957537  0.7174133997177301
  0.7701614786557158  0.8412584750455261  0.9486093887538937
  0.8793580800964068  0.1724371060482810  0.0502470136381031
  0.8955286890366650  0.1778990532037183  0.2826529050931940
  0.8761433685004953  0.1555483615889696  0.5521841407241986
  0.8939450964230247  0.1571409007983432  0.7830407808947863
  0.8861464430160315  0.6509519356025604  0.0495097982649098
  0.9040884734081254  0.6673762843110508  0.2828701486540567
  0.8783653899389683  0.6574875205974042  0.5518709021214292
  0.8902977472352245  0.6840004731492499  0.7835680798990634
  0.1112936734458566  0.8411940774995622  0.0819980157444908
  0.1205931892379155  0.8441641466461205  0.5835156648403662
  0.2169525779985988  0.1582620780410981  0.4153153293935971
  0.2205194508997266  0.6714922636109836  0.9172692545641121
  0.3328502276449611  0.9930775775535605  0.7506624006041268
  0.4465658958846292  0.8320368053309194  0.0840943341690522
  0.4361452977817218  0.8208629374140254  0.5840907809092746
  0.5617232623512149  0.6672512602902970  0.4165195247246283
  0.6684713944082533  0.4929679064794091  0.7498872057325797
  0.6637215108301101  0.0029462739454088  0.2497037216821038
  0.8891735407540690  0.1689036543265869  0.4178162676485168
  0.9977885065002550  0.9931059162308961  0.2489003180099087
  0.2196455266376500  0.1619256161673700  0.9168424521575137
  0.2216467181433642  0.6663315549378874  0.4162014524676763
  0.3359475700867082  0.5008383297598736  0.2489491454419857
  0.3313787412046820  0.4978603617855328  0.7505309182223846
  0.5604686393470026  0.1722523810333457  0.4164475579186740
  0.5560245209085707  0.6649502213325429  0.9173213431730174
  0.7786233386221618  0.3352964270413802  0.0831501523704397
  0.7785243577948169  0.3327914766797181  0.5839005854744327
  0.7785736221501897  0.8328926051173422  0.5838430334554912
  0.8836666889978423  0.1630971110952773  0.9160675579864342
  0.0018284973723479  0.5014028893024587  0.2493233528352142
  0.9963492854067479  0.9997409573562550  0.7505403025318191
  0.1119730060989903  0.3349150492788052  0.0825171104701908
  0.1145604363337517  0.3337511404889922  0.5838498716971346
  0.3362699202947769  0.0043361043288316  0.2495717994004079
  0.4452715092126200  0.3366222439584294  0.0836642092528918
  0.4423255612386065  0.3316150921021630  0.5836387538092400
  0.5558910421965759  0.1709913510341861  0.9173059448586738
  0.6663720044060537  0.4990088818699641  0.2495201597305778
  0.6653854415393254  0.9994967322081142  0.7503177143712171
  0.7794817271824912  0.8351492989935307  0.0833994237998302
  0.8899472921900603  0.6660122344514389  0.4170963501846092
  0.8854043646568881  0.6632042808799307  0.9162129296775537
  0.9951251920954348  0.4962519400136459  0.7501232097647519
